
        $ From http://www.csplib.org/Problems/prob009/data/helmut.pdf
        $ Problem number 114
        $ Sequence length : 25
        language ESSENCE' 1.0
        letting sizemaster be 381
        letting sizes be sequence(12,13,21,23,25,27,35,36,42,45,54,57,59,60,79,82,84,85,92,95,96,100,110,111,186)
        